unsat
(:cnf-encoding-aux-vars 140
 :elim-unconstrained    7
 :max-memory            19.62
 :memory                18.94
 :nlsat-arith-var       16
 :nlsat-atoms           228
 :nlsat-bool-var        157
 :nlsat-clauses         751
 :nlsat-conflicts       7
 :nlsat-decisions       8
 :nlsat-propagations    33
 :num-allocs            370012
 :rlimit-count          80475
 :solve-eqs-elim-vars   97
 :solve-eqs-steps       363
 :time                  0.02
 :total-time            0.04)
